;; ===================== PROJECTED CANON (QE) =====================
;; Each clause below is entailed by Proj = ∃W.F over the canonical vocabulary.
;; Units appear first for clarity; OR-clauses (SAT-filtered) follow.
;; ==================================================================

;; Unit Bool constraints (entailed)
(assert (not patient_has_diagnosis_of_eating_disorder_inthehistory))
(assert (not patient_is_pregnant_now))
(assert (not patient_is_lactating_now))
(assert (not patient_is_exposed_to_tobacco_inthepast12weeks))
(assert (not patient_is_exposed_to_psychotropic_agent_inthepast12weeks))
(assert (not patient_has_finding_of_contraception_inthepast12weeks))
